Step 2/4S2S/VRPwTW.sol
Travel_Cost = 618.2

X :=
Aberdeen  Banchory    1   1
Aberdeen  Fyvie       3   1
Aberdeen  Newmill     4   1
Aberdeen  Peterhead   2   1
Aberdeen  Towie       5   1
Banchory  AberdeenEND 1   1
Clova     Dufftown    5   1
Cornhill  Newbyth     3   1
Dufftown  Huntly      5   1
Fyvie     Turiff      3   1
Huntly    AberdeenEND 5   1
Newbyth   AberdeenEND 3   1
Newmill   AberdeenEND 4   1
Peterhead Strichen    2   1
Strichen  AberdeenEND 2   1
Towie     Clova       5   1
Turiff    Cornhill    3   1
;

Visit :=
Banchory  1   1
Clova     5   1
Cornhill  3   1
Dufftown  5   1
Fyvie     3   1
Huntly    5   1
Newbyth   3   1
Newmill   4   1
Peterhead 2   1
Strichen  2   1
Towie     5   1
Turiff    3   1
;

